language Essence 1.3
letting nnodes be 60
letting nrings be 45
letting capacity be 45
letting demand be 
{{1, 3},
{1, 5},
{1, 12},
{1, 13},
{1, 14},
{1, 16},
{1, 20},
{1, 23},
{1, 24},
{1, 28},
{1, 29},
{1, 30},
{1, 32},
{1, 35},
{1, 38},
{1, 40},
{1, 43},
{1, 48},
{1, 57},
{1, 58},
{2, 4},
{2, 6},
{2, 7},
{2, 8},
{2, 9},
{2, 14},
{2, 17},
{2, 19},
{2, 25},
{2, 27},
{2, 28},
{2, 33},
{2, 34},
{2, 35},
{2, 38},
{2, 40},
{2, 41},
{2, 43},
{2, 45},
{2, 46},
{2, 47},
{2, 49},
{2, 50},
{2, 51},
{2, 52},
{2, 53},
{2, 54},
{2, 55},
{2, 56},
{2, 57},
{2, 60},
{3, 6},
{3, 7},
{3, 8},
{3, 9},
{3, 10},
{3, 11},
{3, 13},
{3, 15},
{3, 17},
{3, 21},
{3, 24},
{3, 26},
{3, 28},
{3, 34},
{3, 36},
{3, 37},
{3, 42},
{3, 45},
{3, 47},
{3, 52},
{3, 56},
{3, 57},
{3, 58},
{4, 10},
{4, 11},
{4, 13},
{4, 18},
{4, 19},
{4, 21},
{4, 22},
{4, 24},
{4, 25},
{4, 27},
{4, 30},
{4, 33},
{4, 35},
{4, 36},
{4, 38},
{4, 40},
{4, 42},
{4, 43},
{4, 44},
{4, 45},
{4, 46},
{4, 48},
{4, 49},
{4, 51},
{4, 54},
{4, 55},
{4, 60},
{5, 9},
{5, 10},
{5, 11},
{5, 13},
{5, 14},
{5, 21},
{5, 23},
{5, 24},
{5, 30},
{5, 31},
{5, 34},
{5, 36},
{5, 37},
{5, 38},
{5, 40},
{5, 41},
{5, 42},
{5, 43},
{5, 47},
{5, 48},
{5, 50},
{5, 53},
{5, 54},
{5, 56},
{5, 57},
{5, 58},
{6, 8},
{6, 12},
{6, 13},
{6, 15},
{6, 16},
{6, 17},
{6, 19},
{6, 20},
{6, 22},
{6, 23},
{6, 24},
{6, 26},
{6, 29},
{6, 30},
{6, 32},
{6, 34},
{6, 35},
{6, 36},
{6, 38},
{6, 40},
{6, 42},
{6, 47},
{6, 49},
{6, 50},
{6, 51},
{6, 54},
{6, 55},
{6, 56},
{6, 57},
{6, 59},
{7, 9},
{7, 10},
{7, 11},
{7, 13},
{7, 14},
{7, 16},
{7, 19},
{7, 21},
{7, 23},
{7, 26},
{7, 29},
{7, 30},
{7, 32},
{7, 33},
{7, 34},
{7, 35},
{7, 38},
{7, 40},
{7, 41},
{7, 44},
{7, 46},
{7, 48},
{7, 49},
{7, 50},
{7, 51},
{7, 53},
{7, 54},
{7, 55},
{7, 56},
{7, 58},
{7, 59},
{7, 60},
{8, 16},
{8, 17},
{8, 20},
{8, 23},
{8, 24},
{8, 25},
{8, 32},
{8, 33},
{8, 35},
{8, 36},
{8, 37},
{8, 38},
{8, 40},
{8, 41},
{8, 42},
{8, 43},
{8, 45},
{8, 47},
{8, 49},
{8, 54},
{8, 55},
{8, 57},
{9, 11},
{9, 12},
{9, 15},
{9, 17},
{9, 18},
{9, 22},
{9, 23},
{9, 25},
{9, 27},
{9, 28},
{9, 29},
{9, 31},
{9, 32},
{9, 34},
{9, 35},
{9, 38},
{9, 39},
{9, 40},
{9, 41},
{9, 45},
{9, 46},
{9, 47},
{9, 50},
{9, 52},
{9, 53},
{9, 55},
{9, 56},
{9, 57},
{9, 58},
{9, 59},
{10, 13},
{10, 16},
{10, 19},
{10, 22},
{10, 23},
{10, 24},
{10, 27},
{10, 30},
{10, 31},
{10, 32},
{10, 36},
{10, 37},
{10, 38},
{10, 39},
{10, 40},
{10, 42},
{10, 43},
{10, 44},
{10, 45},
{10, 49},
{10, 53},
{10, 56},
{11, 13},
{11, 17},
{11, 18},
{11, 19},
{11, 21},
{11, 24},
{11, 26},
{11, 27},
{11, 29},
{11, 31},
{11, 33},
{11, 36},
{11, 37},
{11, 38},
{11, 40},
{11, 41},
{11, 43},
{11, 44},
{11, 46},
{11, 48},
{11, 51},
{11, 54},
{11, 56},
{11, 57},
{11, 59},
{11, 60},
{12, 13},
{12, 14},
{12, 15},
{12, 16},
{12, 17},
{12, 18},
{12, 19},
{12, 21},
{12, 22},
{12, 23},
{12, 25},
{12, 26},
{12, 28},
{12, 36},
{12, 37},
{12, 38},
{12, 39},
{12, 40},
{12, 42},
{12, 46},
{12, 47},
{12, 50},
{12, 52},
{12, 53},
{12, 54},
{12, 56},
{12, 57},
{12, 59},
{12, 60},
{13, 14},
{13, 16},
{13, 18},
{13, 19},
{13, 21},
{13, 23},
{13, 25},
{13, 26},
{13, 27},
{13, 28},
{13, 29},
{13, 30},
{13, 31},
{13, 33},
{13, 35},
{13, 36},
{13, 40},
{13, 41},
{13, 44},
{13, 47},
{13, 49},
{13, 54},
{13, 56},
{13, 60},
{14, 16},
{14, 17},
{14, 21},
{14, 22},
{14, 23},
{14, 29},
{14, 30},
{14, 31},
{14, 37},
{14, 38},
{14, 39},
{14, 40},
{14, 45},
{14, 48},
{14, 50},
{14, 51},
{14, 52},
{14, 53},
{14, 54},
{14, 55},
{14, 57},
{14, 58},
{15, 17},
{15, 18},
{15, 19},
{15, 20},
{15, 23},
{15, 26},
{15, 28},
{15, 29},
{15, 31},
{15, 32},
{15, 33},
{15, 34},
{15, 37},
{15, 38},
{15, 41},
{15, 42},
{15, 43},
{15, 45},
{15, 47},
{15, 48},
{15, 52},
{15, 53},
{15, 59},
{16, 17},
{16, 18},
{16, 19},
{16, 21},
{16, 23},
{16, 24},
{16, 25},
{16, 27},
{16, 28},
{16, 29},
{16, 30},
{16, 31},
{16, 32},
{16, 34},
{16, 38},
{16, 39},
{16, 42},
{16, 46},
{16, 47},
{16, 48},
{16, 49},
{16, 52},
{16, 53},
{16, 55},
{16, 57},
{16, 58},
{17, 18},
{17, 19},
{17, 22},
{17, 26},
{17, 28},
{17, 30},
{17, 31},
{17, 33},
{17, 34},
{17, 35},
{17, 37},
{17, 38},
{17, 39},
{17, 41},
{17, 45},
{17, 47},
{17, 49},
{17, 52},
{17, 53},
{17, 54},
{17, 56},
{17, 57},
{17, 58},
{17, 59},
{18, 20},
{18, 21},
{18, 22},
{18, 23},
{18, 27},
{18, 29},
{18, 30},
{18, 31},
{18, 32},
{18, 33},
{18, 36},
{18, 37},
{18, 40},
{18, 42},
{18, 43},
{18, 45},
{18, 46},
{18, 49},
{18, 50},
{18, 51},
{18, 52},
{18, 53},
{18, 55},
{18, 57},
{18, 59},
{18, 60},
{19, 21},
{19, 22},
{19, 23},
{19, 25},
{19, 26},
{19, 27},
{19, 30},
{19, 33},
{19, 38},
{19, 41},
{19, 44},
{19, 47},
{19, 48},
{19, 51},
{19, 52},
{19, 54},
{19, 55},
{19, 56},
{19, 60},
{20, 22},
{20, 23},
{20, 30},
{20, 32},
{20, 33},
{20, 34},
{20, 36},
{20, 37},
{20, 38},
{20, 40},
{20, 41},
{20, 43},
{20, 46},
{20, 47},
{20, 48},
{20, 52},
{20, 54},
{20, 60},
{21, 23},
{21, 24},
{21, 26},
{21, 27},
{21, 29},
{21, 32},
{21, 33},
{21, 36},
{21, 39},
{21, 40},
{21, 42},
{21, 43},
{21, 48},
{21, 50},
{21, 51},
{21, 54},
{21, 57},
{21, 59},
{22, 23},
{22, 24},
{22, 25},
{22, 26},
{22, 27},
{22, 28},
{22, 29},
{22, 30},
{22, 33},
{22, 35},
{22, 40},
{22, 41},
{22, 42},
{22, 43},
{22, 47},
{22, 49},
{22, 50},
{22, 52},
{22, 53},
{22, 56},
{22, 58},
{22, 60},
{23, 26},
{23, 27},
{23, 28},
{23, 32},
{23, 34},
{23, 37},
{23, 40},
{23, 44},
{23, 45},
{23, 47},
{23, 48},
{23, 49},
{23, 50},
{23, 51},
{23, 52},
{23, 53},
{23, 54},
{23, 57},
{23, 58},
{23, 59},
{24, 26},
{24, 33},
{24, 34},
{24, 36},
{24, 37},
{24, 39},
{24, 40},
{24, 41},
{24, 43},
{24, 45},
{24, 46},
{24, 47},
{24, 49},
{24, 50},
{24, 52},
{24, 53},
{24, 56},
{24, 57},
{24, 58},
{25, 27},
{25, 31},
{25, 32},
{25, 37},
{25, 38},
{25, 39},
{25, 40},
{25, 41},
{25, 42},
{25, 43},
{25, 44},
{25, 47},
{25, 48},
{25, 50},
{25, 51},
{25, 52},
{25, 53},
{25, 54},
{25, 57},
{25, 58},
{25, 59},
{25, 60},
{26, 27},
{26, 30},
{26, 33},
{26, 35},
{26, 36},
{26, 38},
{26, 39},
{26, 40},
{26, 45},
{26, 60},
{27, 28},
{27, 29},
{27, 31},
{27, 32},
{27, 36},
{27, 37},
{27, 38},
{27, 40},
{27, 41},
{27, 44},
{27, 45},
{27, 46},
{27, 47},
{27, 49},
{27, 51},
{27, 52},
{27, 53},
{27, 57},
{27, 58},
{27, 60},
{28, 29},
{28, 30},
{28, 31},
{28, 34},
{28, 35},
{28, 36},
{28, 37},
{28, 38},
{28, 42},
{28, 43},
{28, 45},
{28, 49},
{28, 50},
{28, 51},
{28, 52},
{28, 55},
{28, 56},
{28, 57},
{28, 59},
{29, 30},
{29, 34},
{29, 36},
{29, 37},
{29, 38},
{29, 44},
{29, 47},
{29, 49},
{29, 51},
{29, 53},
{29, 55},
{29, 56},
{29, 57},
{29, 60},
{30, 31},
{30, 33},
{30, 34},
{30, 35},
{30, 37},
{30, 38},
{30, 39},
{30, 40},
{30, 41},
{30, 44},
{30, 47},
{30, 52},
{30, 53},
{30, 55},
{30, 57},
{30, 58},
{30, 59},
{31, 32},
{31, 33},
{31, 34},
{31, 35},
{31, 36},
{31, 39},
{31, 42},
{31, 43},
{31, 44},
{31, 45},
{31, 46},
{31, 47},
{31, 48},
{31, 49},
{31, 51},
{31, 54},
{31, 58},
{31, 59},
{31, 60},
{32, 34},
{32, 35},
{32, 36},
{32, 41},
{32, 42},
{32, 44},
{32, 45},
{32, 47},
{32, 48},
{32, 49},
{32, 54},
{32, 55},
{32, 57},
{32, 59},
{32, 60},
{33, 35},
{33, 37},
{33, 38},
{33, 42},
{33, 51},
{33, 54},
{33, 58},
{33, 60},
{34, 35},
{34, 36},
{34, 39},
{34, 40},
{34, 42},
{34, 45},
{34, 46},
{34, 47},
{34, 50},
{34, 54},
{34, 55},
{34, 58},
{34, 59},
{34, 60},
{35, 36},
{35, 37},
{35, 38},
{35, 40},
{35, 41},
{35, 42},
{35, 43},
{35, 44},
{35, 45},
{35, 46},
{35, 47},
{35, 51},
{35, 55},
{35, 59},
{36, 38},
{36, 39},
{36, 42},
{36, 43},
{36, 44},
{36, 45},
{36, 47},
{36, 48},
{36, 51},
{36, 53},
{36, 54},
{36, 57},
{36, 60},
{37, 40},
{37, 41},
{37, 44},
{37, 47},
{37, 48},
{37, 51},
{37, 55},
{37, 56},
{37, 58},
{38, 39},
{38, 40},
{38, 42},
{38, 43},
{38, 44},
{38, 48},
{38, 49},
{38, 53},
{38, 55},
{38, 56},
{38, 57},
{38, 59},
{39, 42},
{39, 43},
{39, 45},
{39, 49},
{39, 50},
{39, 52},
{39, 53},
{39, 54},
{39, 55},
{39, 56},
{39, 57},
{39, 59},
{39, 60},
{40, 41},
{40, 44},
{40, 46},
{40, 47},
{40, 54},
{40, 55},
{40, 58},
{40, 60},
{41, 42},
{41, 46},
{41, 50},
{41, 52},
{41, 53},
{41, 56},
{41, 60},
{42, 44},
{42, 45},
{42, 46},
{42, 47},
{42, 50},
{42, 54},
{42, 60},
{43, 44},
{43, 45},
{43, 47},
{43, 49},
{43, 50},
{43, 51},
{43, 56},
{43, 57},
{43, 58},
{43, 60},
{44, 45},
{44, 46},
{44, 48},
{44, 50},
{44, 54},
{44, 55},
{44, 56},
{45, 47},
{45, 48},
{45, 49},
{45, 53},
{45, 54},
{45, 56},
{45, 57},
{45, 59},
{46, 47},
{46, 51},
{46, 54},
{46, 59},
{46, 60},
{47, 51},
{47, 52},
{47, 53},
{47, 57},
{47, 58},
{47, 59},
{48, 50},
{48, 53},
{48, 59},
{48, 60},
{49, 50},
{49, 52},
{49, 54},
{49, 55},
{49, 56},
{49, 57},
{49, 59},
{50, 52},
{50, 54},
{50, 56},
{50, 57},
{51, 53},
{51, 54},
{51, 59},
{52, 53},
{52, 54},
{52, 56},
{52, 57},
{52, 59},
{53, 58},
{54, 56},
{54, 57},
{54, 58},
{54, 60},
{55, 56},
{55, 58},
{56, 58},
{56, 59},
{56, 60},
{57, 58},
{57, 59},
{57, 60}}
